n = 221;
rows = 466;
supports = [|
  {1},2..14,
 |{1},209..221,
 |{2},{1},
 |{2},3..15,
 |{2},210..221,
 |{3},1..2,
 |{3},4..16,
 |{3},211..221,
 |{4},1..3,
 |{4},5..17,
 |{4},212..221,
 |{5},1..4,
 |{5},6..18,
 |{5},213..221,
 |{6},1..5,
 |{6},7..19,
 |{6},214..221,
 |{7},1..6,
 |{7},8..20,
 |{7},215..221,
 |{8},1..7,
 |{8},9..21,
 |{8},216..221,
 |{9},1..8,
 |{9},10..22,
 |{9},217..221,
 |{10},1..9,
 |{10},11..23,
 |{10},218..221,
 |{11},1..10,
 |{11},12..24,
 |{11},219..221,
 |{12},1..11,
 |{12},13..25,
 |{12},220..221,
 |{13},1..12,
 |{13},14..26,
 |{13},{221},
 |{14},1..13,
 |{14},15..27,
 |{15},2..14,
 |{15},16..28,
 |{16},3..15,
 |{16},17..29,
 |{17},4..16,
 |{17},18..30,
 |{18},5..17,
 |{18},19..31,
 |{19},6..18,
 |{19},20..32,
 |{20},7..19,
 |{20},21..33,
 |{21},8..20,
 |{21},22..34,
 |{22},9..21,
 |{22},23..35,
 |{23},10..22,
 |{23},24..36,
 |{24},11..23,
 |{24},25..37,
 |{25},12..24,
 |{25},26..38,
 |{26},13..25,
 |{26},27..39,
 |{27},14..26,
 |{27},28..40,
 |{28},15..27,
 |{28},29..41,
 |{29},16..28,
 |{29},30..42,
 |{30},17..29,
 |{30},31..43,
 |{31},18..30,
 |{31},32..44,
 |{32},19..31,
 |{32},33..45,
 |{33},20..32,
 |{33},34..46,
 |{34},21..33,
 |{34},35..47,
 |{35},22..34,
 |{35},36..48,
 |{36},23..35,
 |{36},37..49,
 |{37},24..36,
 |{37},38..50,
 |{38},25..37,
 |{38},39..51,
 |{39},26..38,
 |{39},40..52,
 |{40},27..39,
 |{40},41..53,
 |{41},28..40,
 |{41},42..54,
 |{42},29..41,
 |{42},43..55,
 |{43},30..42,
 |{43},44..56,
 |{44},31..43,
 |{44},45..57,
 |{45},32..44,
 |{45},46..58,
 |{46},33..45,
 |{46},47..59,
 |{47},34..46,
 |{47},48..60,
 |{48},35..47,
 |{48},49..61,
 |{49},36..48,
 |{49},50..62,
 |{50},37..49,
 |{50},51..63,
 |{51},38..50,
 |{51},52..64,
 |{52},39..51,
 |{52},53..65,
 |{53},40..52,
 |{53},54..66,
 |{54},41..53,
 |{54},55..67,
 |{55},42..54,
 |{55},56..68,
 |{56},43..55,
 |{56},57..69,
 |{57},44..56,
 |{57},58..70,
 |{58},45..57,
 |{58},59..71,
 |{59},46..58,
 |{59},60..72,
 |{60},47..59,
 |{60},61..73,
 |{61},48..60,
 |{61},62..74,
 |{62},49..61,
 |{62},63..75,
 |{63},50..62,
 |{63},64..76,
 |{64},51..63,
 |{64},65..77,
 |{65},52..64,
 |{65},66..78,
 |{66},53..65,
 |{66},67..79,
 |{67},54..66,
 |{67},68..80,
 |{68},55..67,
 |{68},69..81,
 |{69},56..68,
 |{69},70..82,
 |{70},57..69,
 |{70},71..83,
 |{71},58..70,
 |{71},72..84,
 |{72},59..71,
 |{72},73..85,
 |{73},60..72,
 |{73},74..86,
 |{74},61..73,
 |{74},75..87,
 |{75},62..74,
 |{75},76..88,
 |{76},63..75,
 |{76},77..89,
 |{77},64..76,
 |{77},78..90,
 |{78},65..77,
 |{78},79..91,
 |{79},66..78,
 |{79},80..92,
 |{80},67..79,
 |{80},81..93,
 |{81},68..80,
 |{81},82..94,
 |{82},69..81,
 |{82},83..95,
 |{83},70..82,
 |{83},84..96,
 |{84},71..83,
 |{84},85..97,
 |{85},72..84,
 |{85},86..98,
 |{86},73..85,
 |{86},87..99,
 |{87},74..86,
 |{87},88..100,
 |{88},75..87,
 |{88},89..101,
 |{89},76..88,
 |{89},90..102,
 |{90},77..89,
 |{90},91..103,
 |{91},78..90,
 |{91},92..104,
 |{92},79..91,
 |{92},93..105,
 |{93},80..92,
 |{93},94..106,
 |{94},81..93,
 |{94},95..107,
 |{95},82..94,
 |{95},96..108,
 |{96},83..95,
 |{96},97..109,
 |{97},84..96,
 |{97},98..110,
 |{98},85..97,
 |{98},99..111,
 |{99},86..98,
 |{99},100..112,
 |{100},87..99,
 |{100},101..113,
 |{101},88..100,
 |{101},102..114,
 |{102},89..101,
 |{102},103..115,
 |{103},90..102,
 |{103},104..116,
 |{104},91..103,
 |{104},105..117,
 |{105},92..104,
 |{105},106..118,
 |{106},93..105,
 |{106},107..119,
 |{107},94..106,
 |{107},108..120,
 |{108},95..107,
 |{108},109..121,
 |{109},96..108,
 |{109},110..122,
 |{110},97..109,
 |{110},111..123,
 |{111},98..110,
 |{111},112..124,
 |{112},99..111,
 |{112},113..125,
 |{113},100..112,
 |{113},114..126,
 |{114},101..113,
 |{114},115..127,
 |{115},102..114,
 |{115},116..128,
 |{116},103..115,
 |{116},117..129,
 |{117},104..116,
 |{117},118..130,
 |{118},105..117,
 |{118},119..131,
 |{119},106..118,
 |{119},120..132,
 |{120},107..119,
 |{120},121..133,
 |{121},108..120,
 |{121},122..134,
 |{122},109..121,
 |{122},123..135,
 |{123},110..122,
 |{123},124..136,
 |{124},111..123,
 |{124},125..137,
 |{125},112..124,
 |{125},126..138,
 |{126},113..125,
 |{126},127..139,
 |{127},114..126,
 |{127},128..140,
 |{128},115..127,
 |{128},129..141,
 |{129},116..128,
 |{129},130..142,
 |{130},117..129,
 |{130},131..143,
 |{131},118..130,
 |{131},132..144,
 |{132},119..131,
 |{132},133..145,
 |{133},120..132,
 |{133},134..146,
 |{134},121..133,
 |{134},135..147,
 |{135},122..134,
 |{135},136..148,
 |{136},123..135,
 |{136},137..149,
 |{137},124..136,
 |{137},138..150,
 |{138},125..137,
 |{138},139..151,
 |{139},126..138,
 |{139},140..152,
 |{140},127..139,
 |{140},141..153,
 |{141},128..140,
 |{141},142..154,
 |{142},129..141,
 |{142},143..155,
 |{143},130..142,
 |{143},144..156,
 |{144},131..143,
 |{144},145..157,
 |{145},132..144,
 |{145},146..158,
 |{146},133..145,
 |{146},147..159,
 |{147},134..146,
 |{147},148..160,
 |{148},135..147,
 |{148},149..161,
 |{149},136..148,
 |{149},150..162,
 |{150},137..149,
 |{150},151..163,
 |{151},138..150,
 |{151},152..164,
 |{152},139..151,
 |{152},153..165,
 |{153},140..152,
 |{153},154..166,
 |{154},141..153,
 |{154},155..167,
 |{155},142..154,
 |{155},156..168,
 |{156},143..155,
 |{156},157..169,
 |{157},144..156,
 |{157},158..170,
 |{158},145..157,
 |{158},159..171,
 |{159},146..158,
 |{159},160..172,
 |{160},147..159,
 |{160},161..173,
 |{161},148..160,
 |{161},162..174,
 |{162},149..161,
 |{162},163..175,
 |{163},150..162,
 |{163},164..176,
 |{164},151..163,
 |{164},165..177,
 |{165},152..164,
 |{165},166..178,
 |{166},153..165,
 |{166},167..179,
 |{167},154..166,
 |{167},168..180,
 |{168},155..167,
 |{168},169..181,
 |{169},156..168,
 |{169},170..182,
 |{170},157..169,
 |{170},171..183,
 |{171},158..170,
 |{171},172..184,
 |{172},159..171,
 |{172},173..185,
 |{173},160..172,
 |{173},174..186,
 |{174},161..173,
 |{174},175..187,
 |{175},162..174,
 |{175},176..188,
 |{176},163..175,
 |{176},177..189,
 |{177},164..176,
 |{177},178..190,
 |{178},165..177,
 |{178},179..191,
 |{179},166..178,
 |{179},180..192,
 |{180},167..179,
 |{180},181..193,
 |{181},168..180,
 |{181},182..194,
 |{182},169..181,
 |{182},183..195,
 |{183},170..182,
 |{183},184..196,
 |{184},171..183,
 |{184},185..197,
 |{185},172..184,
 |{185},186..198,
 |{186},173..185,
 |{186},187..199,
 |{187},174..186,
 |{187},188..200,
 |{188},175..187,
 |{188},189..201,
 |{189},176..188,
 |{189},190..202,
 |{190},177..189,
 |{190},191..203,
 |{191},178..190,
 |{191},192..204,
 |{192},179..191,
 |{192},193..205,
 |{193},180..192,
 |{193},194..206,
 |{194},181..193,
 |{194},195..207,
 |{195},182..194,
 |{195},196..208,
 |{196},183..195,
 |{196},197..209,
 |{197},184..196,
 |{197},198..210,
 |{198},185..197,
 |{198},199..211,
 |{199},186..198,
 |{199},200..212,
 |{200},187..199,
 |{200},201..213,
 |{201},188..200,
 |{201},202..214,
 |{202},189..201,
 |{202},203..215,
 |{203},190..202,
 |{203},204..216,
 |{204},191..203,
 |{204},205..217,
 |{205},192..204,
 |{205},206..218,
 |{206},193..205,
 |{206},207..219,
 |{207},194..206,
 |{207},208..220,
 |{208},195..207,
 |{208},209..221,
 |{209},196..208,
 |{209},210..221,
 |{209},{1},
 |{210},197..209,
 |{210},211..221,
 |{210},1..2,
 |{211},198..210,
 |{211},212..221,
 |{211},1..3,
 |{212},199..211,
 |{212},213..221,
 |{212},1..4,
 |{213},200..212,
 |{213},214..221,
 |{213},1..5,
 |{214},201..213,
 |{214},215..221,
 |{214},1..6,
 |{215},202..214,
 |{215},216..221,
 |{215},1..7,
 |{216},203..215,
 |{216},217..221,
 |{216},1..8,
 |{217},204..216,
 |{217},218..221,
 |{217},1..9,
 |{218},205..217,
 |{218},219..221,
 |{218},1..10,
 |{219},206..218,
 |{219},220..221,
 |{219},1..11,
 |{220},207..219,
 |{220},{221},
 |{220},1..12,
 |{221},208..220,
 |{221},1..13 |];

t = 704;

indexes = [|
    0,10,
  | 0,49,
  | 0,73,
  | 0,156,
  | 0,189,
  | 1,5,
  | 1,31,
  | 1,34,
  | 1,64,
  | 1,113,
  | 1,157,
  | 1,180,
  | 1,197,
  | 2,18,
  | 2,64,
  | 2,84,
  | 2,87,
  | 2,157,
  | 3,43,
  | 3,67,
  | 3,68,
  | 3,77,
  | 3,80,
  | 3,86,
  | 3,102,
  | 3,118,
  | 3,130,
  | 3,137,
  | 3,154,
  | 4,7,
  | 4,122,
  | 4,124,
  | 4,202,
  | 4,203,
  | 5,20,
  | 5,34,
  | 5,150,
  | 5,156,
  | 5,157,
  | 5,200,
  | 6,48,
  | 6,69,
  | 6,78,
  | 6,134,
  | 6,182,
  | 7,56,
  | 7,122,
  | 7,124,
  | 7,185,
  | 7,202,
  | 7,203,
  | 7,209,
  | 8,28,
  | 8,41,
  | 8,63,
  | 8,111,
  | 8,204,
  | 9,42,
  | 9,61,
  | 9,128,
  | 9,143,
  | 9,145,
  | 9,152,
  | 9,173,
  | 9,183,
  | 10,19,
  | 10,26,
  | 10,54,
  | 10,156,
  | 10,172,
  | 10,189,
  | 10,198,
  | 10,200,
  | 10,220,
  | 11,14,
  | 11,24,
  | 11,27,
  | 11,139,
  | 11,149,
  | 11,163,
  | 11,188,
  | 11,210,
  | 12,22,
  | 12,44,
  | 12,47,
  | 12,52,
  | 12,76,
  | 12,77,
  | 12,80,
  | 12,123,
  | 12,130,
  | 13,81,
  | 13,84,
  | 13,96,
  | 13,180,
  | 13,199,
  | 14,24,
  | 14,27,
  | 14,39,
  | 14,129,
  | 14,163,
  | 14,170,
  | 14,210,
  | 15,55,
  | 15,88,
  | 15,106,
  | 15,120,
  | 15,135,
  | 15,165,
  | 15,177,
  | 16,78,
  | 16,133,
  | 16,134,
  | 16,140,
  | 16,171,
  | 16,217,
  | 16,218,
  | 17,66,
  | 17,175,
  | 17,176,
  | 17,201,
  | 17,219,
  | 18,26,
  | 18,64,
  | 18,157,
  | 18,200,
  | 19,26,
  | 19,172,
  | 19,198,
  | 19,200,
  | 20,34,
  | 20,117,
  | 20,150,
  | 20,156,
  | 20,200,
  | 21,29,
  | 21,30,
  | 21,96,
  | 21,115,
  | 21,155,
  | 21,181,
  | 22,32,
  | 22,42,
  | 22,47,
  | 22,102,
  | 22,130,
  | 22,152,
  | 22,195,
  | 23,51,
  | 23,85,
  | 23,112,
  | 23,125,
  | 23,151,
  | 23,187,
  | 23,206,
  | 24,27,
  | 24,39,
  | 24,85,
  | 24,112,
  | 25,29,
  | 25,30,
  | 25,50,
  | 25,95,
  | 25,103,
  | 25,121,
  | 25,212,
  | 26,157,
  | 26,200,
  | 27,85,
  | 27,139,
  | 27,142,
  | 27,149,
  | 28,63,
  | 28,111,
  | 28,133,
  | 28,140,
  | 28,217,
  | 29,30,
  | 29,95,
  | 29,115,
  | 30,81,
  | 30,95,
  | 30,115,
  | 30,121,
  | 30,212,
  | 31,34,
  | 31,113,
  | 31,180,
  | 31,197,
  | 32,42,
  | 32,47,
  | 32,105,
  | 32,109,
  | 32,152,
  | 32,183,
  | 32,195,
  | 33,44,
  | 33,57,
  | 33,76,
  | 33,82,
  | 33,114,
  | 33,187,
  | 33,190,
  | 33,206,
  | 34,116,
  | 34,150,
  | 34,157,
  | 34,197,
  | 35,84,
  | 35,87,
  | 35,96,
  | 35,199,
  | 35,213,
  | 36,37,
  | 36,41,
  | 36,104,
  | 36,132,
  | 36,204,
  | 37,41,
  | 37,104,
  | 37,132,
  | 37,174,
  | 37,204,
  | 37,207,
  | 38,57,
  | 38,114,
  | 38,151,
  | 38,155,
  | 38,181,
  | 38,187,
  | 39,112,
  | 39,129,
  | 39,170,
  | 40,50,
  | 40,51,
  | 40,79,
  | 40,147,
  | 40,193,
  | 40,215,
  | 41,63,
  | 41,204,
  | 42,67,
  | 42,102,
  | 42,130,
  | 42,152,
  | 42,173,
  | 43,62,
  | 43,68,
  | 43,93,
  | 43,137,
  | 43,146,
  | 43,164,
  | 44,47,
  | 44,76,
  | 44,190,
  | 44,195,
  | 45,66,
  | 45,98,
  | 45,107,
  | 45,110,
  | 45,141,
  | 45,148,
  | 45,159,
  | 45,175,
  | 46,83,
  | 46,93,
  | 46,146,
  | 47,52,
  | 47,76,
  | 47,123,
  | 47,130,
  | 47,190,
  | 47,195,
  | 48,69,
  | 48,119,
  | 48,178,
  | 48,182,
  | 49,54,
  | 49,59,
  | 49,73,
  | 49,90,
  | 49,171,
  | 49,189,
  | 50,58,
  | 50,79,
  | 50,95,
  | 50,103,
  | 50,136,
  | 50,147,
  | 50,212,
  | 51,58,
  | 51,85,
  | 51,112,
  | 51,125,
  | 51,147,
  | 51,193,
  | 52,77,
  | 52,80,
  | 52,123,
  | 53,61,
  | 53,128,
  | 53,145,
  | 53,194,
  | 53,196,
  | 54,59,
  | 54,172,
  | 54,189,
  | 54,220,
  | 55,88,
  | 55,100,
  | 55,135,
  | 55,161,
  | 56,124,
  | 56,141,
  | 56,148,
  | 56,209,
  | 57,82,
  | 57,114,
  | 57,151,
  | 57,187,
  | 57,206,
  | 58,95,
  | 58,125,
  | 58,147,
  | 59,90,
  | 59,99,
  | 59,133,
  | 59,171,
  | 59,189,
  | 60,70,
  | 60,96,
  | 60,114,
  | 60,181,
  | 60,213,
  | 61,128,
  | 61,163,
  | 61,183,
  | 61,188,
  | 61,194,
  | 61,210,
  | 62,68,
  | 62,97,
  | 62,164,
  | 62,192,
  | 62,214,
  | 63,99,
  | 63,111,
  | 63,133,
  | 63,140,
  | 63,174,
  | 63,204,
  | 64,84,
  | 64,87,
  | 64,113,
  | 64,157,
  | 65,91,
  | 65,100,
  | 65,135,
  | 65,179,
  | 65,211,
  | 66,98,
  | 66,107,
  | 66,159,
  | 66,162,
  | 66,175,
  | 66,201,
  | 67,68,
  | 67,102,
  | 67,143,
  | 67,167,
  | 67,173,
  | 68,74,
  | 68,86,
  | 68,154,
  | 68,167,
  | 68,214,
  | 69,119,
  | 69,138,
  | 69,178,
  | 69,182,
  | 69,184,
  | 70,72,
  | 70,82,
  | 70,114,
  | 70,181,
  | 71,94,
  | 71,134,
  | 71,158,
  | 71,182,
  | 71,184,
  | 71,205,
  | 72,77,
  | 72,80,
  | 72,82,
  | 72,114,
  | 73,90,
  | 73,94,
  | 73,189,
  | 73,205,
  | 74,97,
  | 74,143,
  | 74,145,
  | 74,167,
  | 74,169,
  | 74,192,
  | 74,214,
  | 75,120,
  | 75,127,
  | 75,166,
  | 75,168,
  | 76,77,
  | 76,82,
  | 77,80,
  | 77,82,
  | 77,118,
  | 77,130,
  | 77,137,
  | 78,134,
  | 78,182,
  | 78,218,
  | 79,103,
  | 79,136,
  | 79,138,
  | 79,147,
  | 79,178,
  | 79,215,
  | 79,216,
  | 80,82,
  | 80,137,
  | 81,96,
  | 81,115,
  | 81,121,
  | 81,199,
  | 82,114,
  | 83,127,
  | 83,131,
  | 83,146,
  | 83,166,
  | 83,169,
  | 83,192,
  | 84,87,
  | 84,113,
  | 84,180,
  | 84,199,
  | 85,92,
  | 85,112,
  | 85,142,
  | 85,193,
  | 86,91,
  | 86,118,
  | 86,154,
  | 86,160,
  | 87,199,
  | 88,106,
  | 88,126,
  | 88,161,
  | 88,165,
  | 88,191,
  | 89,116,
  | 89,117,
  | 89,138,
  | 89,150,
  | 89,184,
  | 89,216,
  | 90,94,
  | 90,134,
  | 90,171,
  | 90,205,
  | 91,135,
  | 91,154,
  | 91,160,
  | 91,179,
  | 91,211,
  | 92,142,
  | 92,193,
  | 92,208,
  | 92,215,
  | 93,137,
  | 93,146,
  | 94,134,
  | 94,158,
  | 94,171,
  | 94,182,
  | 94,205,
  | 95,147,
  | 96,115,
  | 96,155,
  | 96,181,
  | 96,199,
  | 96,213,
  | 97,108,
  | 97,153,
  | 97,166,
  | 97,169,
  | 97,192,
  | 97,214,
  | 98,141,
  | 98,148,
  | 98,175,
  | 99,133,
  | 99,171,
  | 99,174,
  | 100,135,
  | 101,108,
  | 101,135,
  | 101,166,
  | 101,168,
  | 101,177,
  | 101,211,
  | 102,130,
  | 102,173,
  | 103,136,
  | 103,212,
  | 104,132,
  | 104,172,
  | 104,198,
  | 104,207,
  | 104,220,
  | 105,109,
  | 105,129,
  | 105,144,
  | 105,170,
  | 105,190,
  | 105,195,
  | 105,210,
  | 106,126,
  | 106,165,
  | 106,191,
  | 107,159,
  | 107,162,
  | 107,201,
  | 108,153,
  | 108,166,
  | 108,168,
  | 108,192,
  | 108,211,
  | 109,152,
  | 109,170,
  | 109,183,
  | 109,195,
  | 109,210,
  | 110,148,
  | 110,159,
  | 110,185,
  | 110,209,
  | 111,140,
  | 111,217,
  | 112,129,
  | 112,187,
  | 112,206,
  | 113,180,
  | 114,155,
  | 114,181,
  | 115,121,
  | 116,150,
  | 116,197,
  | 117,150,
  | 117,158,
  | 117,184,
  | 118,160,
  | 119,178,
  | 119,208,
  | 119,215,
  | 120,165,
  | 120,168,
  | 120,177,
  | 121,212,
  | 122,185,
  | 122,202,
  | 122,209,
  | 124,203,
  | 124,209,
  | 125,147,
  | 125,151,
  | 125,187,
  | 126,186,
  | 126,191,
  | 126,219,
  | 127,166,
  | 127,168,
  | 127,192,
  | 128,143,
  | 128,145,
  | 128,183,
  | 128,194,
  | 128,196,
  | 129,144,
  | 129,170,
  | 129,206,
  | 131,145,
  | 131,169,
  | 131,192,
  | 131,196,
  | 132,172,
  | 132,198,
  | 133,140,
  | 133,171,
  | 133,174,
  | 134,171,
  | 134,182,
  | 134,218,
  | 135,177,
  | 135,211,
  | 136,138,
  | 136,216,
  | 138,178,
  | 138,182,
  | 138,184,
  | 138,216,
  | 139,142,
  | 139,149,
  | 140,171,
  | 140,217,
  | 140,218,
  | 141,148,
  | 141,209,
  | 142,193,
  | 143,145,
  | 143,167,
  | 143,169,
  | 143,173,
  | 144,170,
  | 144,190,
  | 144,195,
  | 144,206,
  | 145,169,
  | 145,196,
  | 146,164,
  | 146,192,
  | 147,193,
  | 148,159,
  | 148,185,
  | 148,209,
  | 149,163,
  | 149,188,
  | 150,184,
  | 150,197,
  | 151,187,
  | 152,173,
  | 152,183,
  | 153,154,
  | 153,211,
  | 153,214,
  | 154,211,
  | 154,214,
  | 155,181,
  | 156,200,
  | 157,200,
  | 158,184,
  | 158,205,
  | 160,179,
  | 161,176,
  | 161,191,
  | 161,219,
  | 162,186,
  | 162,201,
  | 162,219,
  | 163,183,
  | 163,188,
  | 163,194,
  | 163,210,
  | 164,192,
  | 165,177,
  | 166,168,
  | 166,192,
  | 167,173,
  | 167,214,
  | 168,177,
  | 169,192,
  | 169,196,
  | 170,210,
  | 172,198,
  | 172,207,
  | 172,220,
  | 174,204,
  | 174,207,
  | 175,201,
  | 176,191,
  | 176,201,
  | 176,219,
  | 178,208,
  | 178,215,
  | 180,199,
  | 181,213,
  | 182,184,
  | 183,210,
  | 184,216,
  | 185,209,
  | 186,191,
  | 186,201,
  | 186,219,
  | 187,206,
  | 188,194,
  | 190,195,
  | 190,206,
  | 191,219,
  | 193,208,
  | 193,215,
  | 199,213,
  | 201,219,
  | 204,207,
  | 207,220,
  | 208,215,
  | 217,218 |];

